Version identifier: 20.1.0.0 | 2020-11-10 | 9bedb6d68
Tried aggregator 3 times.
MIP Presolve eliminated 2524 rows and 1325 columns.
MIP Presolve modified 6236 coefficients.
Aggregator did 230 substitutions.
Reduced MIP has 3655 rows, 2860 columns, and 11998 nonzeros.
Reduced MIP has 546 binaries, 2314 generals, 0 SOSs, and 0 indicators.
Presolve time = 0.04 sec. (16.63 ticks)
Probing fixed 80 vars, tightened 730 bounds.
Probing time = 0.01 sec. (1.53 ticks)
Tried aggregator 2 times.
Detecting symmetries...
MIP Presolve eliminated 1566 rows and 166 columns.
MIP Presolve modified 285 coefficients.
Aggregator did 38 substitutions.
Reduced MIP has 2051 rows, 2656 columns, and 6662 nonzeros.
Reduced MIP has 882 binaries, 1774 generals, 0 SOSs, and 0 indicators.
Presolve time = 0.02 sec. (10.04 ticks)
Probing time = 0.00 sec. (0.56 ticks)
Clique table members: 5.
MIP emphasis: balance optimality and feasibility.
MIP search method: dynamic search.
Parallel mode: deterministic, using up to 24 threads.
Root relaxation solution time = 0.03 sec. (5.60 ticks)

        Nodes                                         Cuts/
   Node  Left     Objective  IInf  Best Integer    Best Bound    ItCnt     Gap

      0     0        0.0000    79                      0.0000      500         
*     0+    0                           19.0000        0.0000           100.00%
*     0+    0                           18.0000        0.0000           100.00%
      0     0        0.0000    75       18.0000     Cuts: 222      711   94.44%
      0     0        0.0000    39       18.0000     Cuts: 145      924   94.44%
      0     0        0.0000    78       18.0000      Cuts: 80      985   94.44%
      0     0        0.0000    37       18.0000       Cuts: 7      998   94.44%
      0     0        0.0000    94       18.0000      Cuts: 38     1087   94.44%
*     0+    0                           17.0000        1.0000            94.12%
*     0+    0                           16.0000        1.0000            93.75%
      0     2        0.0000    59       16.0000        1.0000     1087   93.75%
Elapsed time = 1.16 sec. (285.84 ticks, tree = 0.02 MB, solutions = 4)
*   255+   31                           15.0000        6.3333            57.78%

Implied bound cuts applied:  186
Flow cuts applied:  6
Mixed integer rounding cuts applied:  14
Zero-half cuts applied:  122
Lift and project cuts applied:  16
Gomory fractional cuts applied:  45

Root node processing (before b&c):
  Real time             =    1.13 sec. (285.11 ticks)
Parallel b&c, 24 threads:
  Real time             =    1.03 sec. (123.76 ticks)
  Sync time (average)   =    0.80 sec.
  Wait time (average)   =    0.00 sec.
                          ------------
Total (root+branch&cut) =    2.16 sec. (408.86 ticks)

Solution status = Optimal
Solution LB = 15
Solution UB = 15
Runtime = 2.16753 seconds
	Command being timed: "/home/min/git_repos/CS598MEBProject/CNT-ILP/build/cnt -s 2 ./output/k8_n40/simC_c1_k8_n40_u3_s3_del04.input-left.cnp"
	User time (seconds): 29.97
	System time (seconds): 0.29
	Percent of CPU this job got: 1369%
	Elapsed (wall clock) time (h:mm:ss or m:ss): 0:02.21
	Average shared text size (kbytes): 0
	Average unshared data size (kbytes): 0
	Average stack size (kbytes): 0
	Average total size (kbytes): 0
	Maximum resident set size (kbytes): 200472
	Average resident set size (kbytes): 0
	Major (requiring I/O) page faults: 0
	Minor (reclaiming a frame) page faults: 73123
	Voluntary context switches: 11870
	Involuntary context switches: 4151
	Swaps: 0
	File system inputs: 0
	File system outputs: 24
	Socket messages sent: 0
	Socket messages received: 0
	Signals delivered: 0
	Page size (bytes): 4096
	Exit status: 0
